clingo version 5.3.0
Reading from color.lp
Solving...
Answer: 1
color(2,b) color(1,g) color(3,b) color(4,r) color(5,g) color(6,r)
SATISFIABLE

Models       : 1+
Calls        : 1
Time         : 0.004s (Solving: 0.00s 1st Model: 0.00s Unsat: 0.00s)
CPU Time     : 0.004s
